SCIP version 5.0.0 [precision: 8 byte] [memory: block] [mode: optimized] [LP solver: NONE] [GitHash: 3bbd232]
Copyright (C) 2002-2017 Konrad-Zuse-Zentrum fuer Informationstechnik Berlin (ZIB)

External codes: 
  Readline EditLine w  GNU library for command line editing (gnu.org/s/readline)
  CppAD 20160000.1     Algorithmic Differentiation of C++ algorithms developed by B. Bell (www.coin-or.org/CppAD)
  ZLIB 1.2.5           General purpose compression library by J. Gailly and M. Adler (zlib.net)
  GMP 6.1.2            GNU Multiple Precision Arithmetic Library developed by T. Granlund (gmplib.org)

user parameter file <scip.set> not found - using default parameters

read problem <../../Split_data/output/parkin/3/3_sample_parkin.logreg>
============

File name	:	../../Split_data/output/parkin/3/3_sample_parkin.logreg
Problem name 	:	3_sample_parkin
Number of data	:	156
Number of var	:	22
The given data has linear independence

[dim=1] time: 0.003193
[dim=2] time: 0.005798
[dim=3] time: 0.008385
[dim=4] time: 0.0108
[dim=5] time: 0.013042
[dim=6] Time of forward = 0.015246sec.
AIC: 104
k: 5

[dim=22] time: 0.042877
[dim=21] time: 0.102815
[dim=20] time: 0.231241
[dim=19] time: 0.235239
[dim=18] time: 0.238789
[dim=17] time: 0.241684
[dim=16] time: 0.24446
[dim=15] time: 0.246957
[dim=14] time: 0.249117
[dim=13] time: 0.250497
[dim=12] time: 0.252612
[dim=11] time: 0.254044
[dim=10] time: 0.256039
[dim=9] time: 0.257619
[dim=8] Time of backward = 0.259209sec.
AIC: 93.6875
k: 9
